(set-logic QF_NIA)
(set-info :status unsat)
(declare-fun a () Int)
(declare-fun b () Int)
(declare-fun res1 () Int)
(declare-fun res2 () Int)
(assert (and (= res1 (div a b)) (= res2 (div a 3))))
(assert (= b 3))
(assert (not (= res1 res2)))
(check-sat)
